11428
1 1 1 1 1 1 1 1 1 1 1 1 1 1 1 1 0 1 1 1 0 0 1 0 1 0 1 1 1 1 
10 0 10 10 10 0 10 1 1 1 1 11 11 11 11 2 2 3 2 3 2 4 4 5 6 6 5 7 7 8 7 8 9 9 10 2 3 17 24 28 29 12 19 22 24 14 18 17 29 28 29 27 13 22 24 26 13 18 18 24 19 15 28 18 26 27 14 13 15 12 
